NAME: random-89-28825
TYPE: TSP
COMMENT: size=89 seed=28825
DIMENSION: 180
EDGE_WEIGHT_TYPE: EUC_2D
NODE_COORD_SECTION
+0 775 648
-0 775 648
+1 271 183
-1 468 854
+2 215 451
-2 62 241
+3 956 238
-3 248 579
+4 560 438
-4 3 778
+5 977 413
-5 806 632
+6 670 89
-6 125 47
+7 23 858
-7 392 860
+8 845 179
-8 851 958
+9 630 384
-9 473 415
+10 135 66
-10 215 595
+11 465 160
-11 818 928
+12 630 912
-12 7 35
+13 209 972
-13 415 297
+14 419 222
-14 321 960
+15 478 776
-15 271 988
+16 792 739
-16 888 695
+17 707 850
-17 346 741
+18 933 745
-18 582 161
+19 394 579
-19 975 878
+20 808 939
-20 246 257
+21 56 413
-21 638 530
+22 652 239
-22 613 112
+23 279 285
-23 814 855
+24 634 393
-24 689 269
+25 236 936
-25 709 520
+26 815 731
-26 562 581
+27 515 704
-27 339 432
+28 330 650
-28 758 513
+29 715 771
-29 753 827
+30 66 520
-30 408 126
+31 97 980
-31 227 245
+32 492 659
-32 301 760
+33 199 467
-33 488 453
+34 340 356
-34 100 994
+35 927 842
-35 440 335
+36 279 796
-36 711 74
+37 626 543
-37 275 9
+38 471 749
-38 856 689
+39 581 516
-39 679 194
+40 307 199
-40 738 124
+41 751 20
-41 929 129
+42 733 481
-42 143 434
+43 43 125
-43 244 840
+44 532 757
-44 597 47
+45 100 86
-45 301 490
+46 174 637
-46 117 372
+47 752 842
-47 952 752
+48 393 673
-48 436 922
+49 969 89
-49 214 563
+50 527 448
-50 112 83
+51 461 42
-51 898 509
+52 218 227
-52 144 526
+53 77 252
-53 918 759
+54 840 870
-54 612 775
+55 642 696
-55 190 487
+56 867 4
-56 535 55
+57 156 938
-57 927 862
+58 237 36
-58 168 779
+59 611 543
-59 525 180
+60 377 650
-60 403 53
+61 800 391
-61 747 831
+62 494 473
-62 301 175
+63 323 170
-63 675 545
+64 691 876
-64 423 27
+65 877 486
-65 350 168
+66 191 866
-66 442 215
+67 633 696
-67 963 261
+68 661 480
-68 3 536
+69 329 482
-69 231 699
+70 823 978
-70 787 898
+71 802 9
-71 449 653
+72 222 269
-72 6 163
+73 606 911
-73 524 712
+74 97 785
-74 511 77
+75 82 959
-75 944 24
+76 978 79
-76 929 489
+77 916 755
-77 168 970
+78 523 844
-78 56 289
+79 944 555
-79 467 538
+80 701 675
-80 978 699
+81 700 605
-81 46 581
+82 924 7
-82 658 88
+83 309 440
-83 451 187
+84 200 15
-84 796 882
+85 492 926
-85 217 156
+86 203 246
-86 487 250
+87 479 41
-87 43 289
+88 671 321
-88 605 105
+89 720 855
-89 167 732
PRECEDENCE_SECTION
+0 -0
+1 -1
+2 -2
+3 -3
+4 -4
+5 -5
+6 -6
+7 -7
+8 -8
+9 -9
+10 -10
+11 -11
+12 -12
+13 -13
+14 -14
+15 -15
+16 -16
+17 -17
+18 -18
+19 -19
+20 -20
+21 -21
+22 -22
+23 -23
+24 -24
+25 -25
+26 -26
+27 -27
+28 -28
+29 -29
+30 -30
+31 -31
+32 -32
+33 -33
+34 -34
+35 -35
+36 -36
+37 -37
+38 -38
+39 -39
+40 -40
+41 -41
+42 -42
+43 -43
+44 -44
+45 -45
+46 -46
+47 -47
+48 -48
+49 -49
+50 -50
+51 -51
+52 -52
+53 -53
+54 -54
+55 -55
+56 -56
+57 -57
+58 -58
+59 -59
+60 -60
+61 -61
+62 -62
+63 -63
+64 -64
+65 -65
+66 -66
+67 -67
+68 -68
+69 -69
+70 -70
+71 -71
+72 -72
+73 -73
+74 -74
+75 -75
+76 -76
+77 -77
+78 -78
+79 -79
+80 -80
+81 -81
+82 -82
+83 -83
+84 -84
+85 -85
+86 -86
+87 -87
+88 -88
+89 -89
EOF
